N = 100;
K = 100;
M = 792;
P = 10;
R0 = 50;
Start = [47 ,95 ,21 ,6 ,45 ,75 ,17 ,63 ,10 ,61];
End = [39 ,67 ,9 ,26 ,14 ,71 ,80 ,24 ,19 ,44];
Edge_Start =  [1 ,11 ,1 ,12 ,2 ,12 ,2 ,13 ,2 ,11 ,3 ,13 ,3 ,14 ,3 ,12 ,4 ,14 ,4 ,15 ,4 ,13 ,5 ,15 ,5 ,16 ,5 ,14 ,6 ,16 ,6 ,17 ,6 ,15 ,7 ,17 ,7 ,18 ,7 ,16 ,8 ,18 ,8 ,19 ,8 ,17 ,9 ,19 ,9 ,20 ,9 ,18 ,10 ,20 ,10 ,19 ,11 ,12 ,11 ,21 ,11 ,22 ,12 ,13 ,12 ,11 ,12 ,22 ,12 ,23 ,12 ,21 ,13 ,14 ,13 ,12 ,13 ,23 ,13 ,24 ,13 ,22 ,14 ,15 ,14 ,13 ,14 ,24 ,14 ,25 ,14 ,23 ,15 ,16 ,15 ,14 ,15 ,25 ,15 ,26 ,15 ,24 ,16 ,17 ,16 ,15 ,16 ,26 ,16 ,27 ,16 ,25 ,17 ,18 ,17 ,16 ,17 ,27 ,17 ,28 ,17 ,26 ,18 ,19 ,18 ,17 ,18 ,28 ,18 ,29 ,18 ,27 ,19 ,20 ,19 ,18 ,19 ,29 ,19 ,30 ,19 ,28 ,20 ,19 ,20 ,30 ,20 ,29 ,21 ,22 ,21 ,31 ,21 ,32 ,22 ,23 ,22 ,21 ,22 ,32 ,22 ,33 ,22 ,31 ,23 ,24 ,23 ,22 ,23 ,33 ,23 ,34 ,23 ,32 ,24 ,25 ,24 ,23 ,24 ,34 ,24 ,35 ,24 ,33 ,25 ,26 ,25 ,24 ,25 ,35 ,25 ,36 ,25 ,34 ,26 ,27 ,26 ,25 ,26 ,36 ,26 ,37 ,26 ,35 ,27 ,28 ,27 ,26 ,27 ,37 ,27 ,38 ,27 ,36 ,28 ,29 ,28 ,27 ,28 ,38 ,28 ,39 ,28 ,37 ,29 ,30 ,29 ,28 ,29 ,39 ,29 ,40 ,29 ,38 ,30 ,29 ,30 ,40 ,30 ,39 ,31 ,32 ,31 ,41 ,31 ,42 ,32 ,33 ,32 ,31 ,32 ,42 ,32 ,43 ,32 ,41 ,33 ,34 ,33 ,32 ,33 ,43 ,33 ,44 ,33 ,42 ,34 ,35 ,34 ,33 ,34 ,44 ,34 ,45 ,34 ,43 ,35 ,36 ,35 ,34 ,35 ,45 ,35 ,46 ,35 ,44 ,36 ,37 ,36 ,35 ,36 ,46 ,36 ,47 ,36 ,45 ,37 ,38 ,37 ,36 ,37 ,47 ,37 ,48 ,37 ,46 ,38 ,39 ,38 ,37 ,38 ,48 ,38 ,49 ,38 ,47 ,39 ,40 ,39 ,38 ,39 ,49 ,39 ,50 ,39 ,48 ,40 ,39 ,40 ,50 ,40 ,49 ,41 ,42 ,41 ,51 ,41 ,52 ,42 ,43 ,42 ,41 ,42 ,52 ,42 ,53 ,42 ,51 ,43 ,44 ,43 ,42 ,43 ,53 ,43 ,54 ,43 ,52 ,44 ,45 ,44 ,43 ,44 ,54 ,44 ,55 ,44 ,53 ,45 ,46 ,45 ,44 ,45 ,55 ,45 ,56 ,45 ,54 ,46 ,47 ,46 ,45 ,46 ,56 ,46 ,57 ,46 ,55 ,47 ,48 ,47 ,46 ,47 ,57 ,47 ,58 ,47 ,56 ,48 ,49 ,48 ,47 ,48 ,58 ,48 ,59 ,48 ,57 ,49 ,50 ,49 ,48 ,49 ,59 ,49 ,60 ,49 ,58 ,50 ,49 ,50 ,60 ,50 ,59 ,51 ,52 ,51 ,61 ,51 ,62 ,52 ,53 ,52 ,51 ,52 ,62 ,52 ,63 ,52 ,61 ,53 ,54 ,53 ,52 ,53 ,63 ,53 ,64 ,53 ,62 ,54 ,55 ,54 ,53 ,54 ,64 ,54 ,65 ,54 ,63 ,55 ,56 ,55 ,54 ,55 ,65 ,55 ,66 ,55 ,64 ,56 ,57 ,56 ,55 ,56 ,66 ,56 ,67 ,56 ,65 ,57 ,58 ,57 ,56 ,57 ,67 ,57 ,68 ,57 ,66 ,58 ,59 ,58 ,57 ,58 ,68 ,58 ,69 ,58 ,67 ,59 ,60 ,59 ,58 ,59 ,69 ,59 ,70 ,59 ,68 ,60 ,59 ,60 ,70 ,60 ,69 ,61 ,62 ,61 ,71 ,61 ,72 ,62 ,63 ,62 ,61 ,62 ,72 ,62 ,73 ,62 ,71 ,63 ,64 ,63 ,62 ,63 ,73 ,63 ,74 ,63 ,72 ,64 ,65 ,64 ,63 ,64 ,74 ,64 ,75 ,64 ,73 ,65 ,66 ,65 ,64 ,65 ,75 ,65 ,76 ,65 ,74 ,66 ,67 ,66 ,65 ,66 ,76 ,66 ,77 ,66 ,75 ,67 ,68 ,67 ,66 ,67 ,77 ,67 ,78 ,67 ,76 ,68 ,69 ,68 ,67 ,68 ,78 ,68 ,79 ,68 ,77 ,69 ,70 ,69 ,68 ,69 ,79 ,69 ,80 ,69 ,78 ,70 ,69 ,70 ,80 ,70 ,79 ,71 ,72 ,71 ,81 ,71 ,82 ,72 ,73 ,72 ,71 ,72 ,82 ,72 ,83 ,72 ,81 ,73 ,74 ,73 ,72 ,73 ,83 ,73 ,84 ,73 ,82 ,74 ,75 ,74 ,73 ,74 ,84 ,74 ,85 ,74 ,83 ,75 ,76 ,75 ,74 ,75 ,85 ,75 ,86 ,75 ,84 ,76 ,77 ,76 ,75 ,76 ,86 ,76 ,87 ,76 ,85 ,77 ,78 ,77 ,76 ,77 ,87 ,77 ,88 ,77 ,86 ,78 ,79 ,78 ,77 ,78 ,88 ,78 ,89 ,78 ,87 ,79 ,80 ,79 ,78 ,79 ,89 ,79 ,90 ,79 ,88 ,80 ,79 ,80 ,90 ,80 ,89 ,81 ,82 ,81 ,91 ,81 ,92 ,82 ,83 ,82 ,81 ,82 ,92 ,82 ,93 ,82 ,91 ,83 ,84 ,83 ,82 ,83 ,93 ,83 ,94 ,83 ,92 ,84 ,85 ,84 ,83 ,84 ,94 ,84 ,95 ,84 ,93 ,85 ,86 ,85 ,84 ,85 ,95 ,85 ,96 ,85 ,94 ,86 ,87 ,86 ,85 ,86 ,96 ,86 ,97 ,86 ,95 ,87 ,88 ,87 ,86 ,87 ,97 ,87 ,98 ,87 ,96 ,88 ,89 ,88 ,87 ,88 ,98 ,88 ,99 ,88 ,97 ,89 ,90 ,89 ,88 ,89 ,99 ,89 ,100 ,89 ,98 ,90 ,89 ,90 ,100 ,90 ,99];
Edge_End =  [11 ,1 ,12 ,1 ,12 ,2 ,13 ,2 ,11 ,2 ,13 ,3 ,14 ,3 ,12 ,3 ,14 ,4 ,15 ,4 ,13 ,4 ,15 ,5 ,16 ,5 ,14 ,5 ,16 ,6 ,17 ,6 ,15 ,6 ,17 ,7 ,18 ,7 ,16 ,7 ,18 ,8 ,19 ,8 ,17 ,8 ,19 ,9 ,20 ,9 ,18 ,9 ,20 ,10 ,19 ,10 ,12 ,11 ,21 ,11 ,22 ,11 ,13 ,12 ,11 ,12 ,22 ,12 ,23 ,12 ,21 ,12 ,14 ,13 ,12 ,13 ,23 ,13 ,24 ,13 ,22 ,13 ,15 ,14 ,13 ,14 ,24 ,14 ,25 ,14 ,23 ,14 ,16 ,15 ,14 ,15 ,25 ,15 ,26 ,15 ,24 ,15 ,17 ,16 ,15 ,16 ,26 ,16 ,27 ,16 ,25 ,16 ,18 ,17 ,16 ,17 ,27 ,17 ,28 ,17 ,26 ,17 ,19 ,18 ,17 ,18 ,28 ,18 ,29 ,18 ,27 ,18 ,20 ,19 ,18 ,19 ,29 ,19 ,30 ,19 ,28 ,19 ,19 ,20 ,30 ,20 ,29 ,20 ,22 ,21 ,31 ,21 ,32 ,21 ,23 ,22 ,21 ,22 ,32 ,22 ,33 ,22 ,31 ,22 ,24 ,23 ,22 ,23 ,33 ,23 ,34 ,23 ,32 ,23 ,25 ,24 ,23 ,24 ,34 ,24 ,35 ,24 ,33 ,24 ,26 ,25 ,24 ,25 ,35 ,25 ,36 ,25 ,34 ,25 ,27 ,26 ,25 ,26 ,36 ,26 ,37 ,26 ,35 ,26 ,28 ,27 ,26 ,27 ,37 ,27 ,38 ,27 ,36 ,27 ,29 ,28 ,27 ,28 ,38 ,28 ,39 ,28 ,37 ,28 ,30 ,29 ,28 ,29 ,39 ,29 ,40 ,29 ,38 ,29 ,29 ,30 ,40 ,30 ,39 ,30 ,32 ,31 ,41 ,31 ,42 ,31 ,33 ,32 ,31 ,32 ,42 ,32 ,43 ,32 ,41 ,32 ,34 ,33 ,32 ,33 ,43 ,33 ,44 ,33 ,42 ,33 ,35 ,34 ,33 ,34 ,44 ,34 ,45 ,34 ,43 ,34 ,36 ,35 ,34 ,35 ,45 ,35 ,46 ,35 ,44 ,35 ,37 ,36 ,35 ,36 ,46 ,36 ,47 ,36 ,45 ,36 ,38 ,37 ,36 ,37 ,47 ,37 ,48 ,37 ,46 ,37 ,39 ,38 ,37 ,38 ,48 ,38 ,49 ,38 ,47 ,38 ,40 ,39 ,38 ,39 ,49 ,39 ,50 ,39 ,48 ,39 ,39 ,40 ,50 ,40 ,49 ,40 ,42 ,41 ,51 ,41 ,52 ,41 ,43 ,42 ,41 ,42 ,52 ,42 ,53 ,42 ,51 ,42 ,44 ,43 ,42 ,43 ,53 ,43 ,54 ,43 ,52 ,43 ,45 ,44 ,43 ,44 ,54 ,44 ,55 ,44 ,53 ,44 ,46 ,45 ,44 ,45 ,55 ,45 ,56 ,45 ,54 ,45 ,47 ,46 ,45 ,46 ,56 ,46 ,57 ,46 ,55 ,46 ,48 ,47 ,46 ,47 ,57 ,47 ,58 ,47 ,56 ,47 ,49 ,48 ,47 ,48 ,58 ,48 ,59 ,48 ,57 ,48 ,50 ,49 ,48 ,49 ,59 ,49 ,60 ,49 ,58 ,49 ,49 ,50 ,60 ,50 ,59 ,50 ,52 ,51 ,61 ,51 ,62 ,51 ,53 ,52 ,51 ,52 ,62 ,52 ,63 ,52 ,61 ,52 ,54 ,53 ,52 ,53 ,63 ,53 ,64 ,53 ,62 ,53 ,55 ,54 ,53 ,54 ,64 ,54 ,65 ,54 ,63 ,54 ,56 ,55 ,54 ,55 ,65 ,55 ,66 ,55 ,64 ,55 ,57 ,56 ,55 ,56 ,66 ,56 ,67 ,56 ,65 ,56 ,58 ,57 ,56 ,57 ,67 ,57 ,68 ,57 ,66 ,57 ,59 ,58 ,57 ,58 ,68 ,58 ,69 ,58 ,67 ,58 ,60 ,59 ,58 ,59 ,69 ,59 ,70 ,59 ,68 ,59 ,59 ,60 ,70 ,60 ,69 ,60 ,62 ,61 ,71 ,61 ,72 ,61 ,63 ,62 ,61 ,62 ,72 ,62 ,73 ,62 ,71 ,62 ,64 ,63 ,62 ,63 ,73 ,63 ,74 ,63 ,72 ,63 ,65 ,64 ,63 ,64 ,74 ,64 ,75 ,64 ,73 ,64 ,66 ,65 ,64 ,65 ,75 ,65 ,76 ,65 ,74 ,65 ,67 ,66 ,65 ,66 ,76 ,66 ,77 ,66 ,75 ,66 ,68 ,67 ,66 ,67 ,77 ,67 ,78 ,67 ,76 ,67 ,69 ,68 ,67 ,68 ,78 ,68 ,79 ,68 ,77 ,68 ,70 ,69 ,68 ,69 ,79 ,69 ,80 ,69 ,78 ,69 ,69 ,70 ,80 ,70 ,79 ,70 ,72 ,71 ,81 ,71 ,82 ,71 ,73 ,72 ,71 ,72 ,82 ,72 ,83 ,72 ,81 ,72 ,74 ,73 ,72 ,73 ,83 ,73 ,84 ,73 ,82 ,73 ,75 ,74 ,73 ,74 ,84 ,74 ,85 ,74 ,83 ,74 ,76 ,75 ,74 ,75 ,85 ,75 ,86 ,75 ,84 ,75 ,77 ,76 ,75 ,76 ,86 ,76 ,87 ,76 ,85 ,76 ,78 ,77 ,76 ,77 ,87 ,77 ,88 ,77 ,86 ,77 ,79 ,78 ,77 ,78 ,88 ,78 ,89 ,78 ,87 ,78 ,80 ,79 ,78 ,79 ,89 ,79 ,90 ,79 ,88 ,79 ,79 ,80 ,90 ,80 ,89 ,80 ,82 ,81 ,91 ,81 ,92 ,81 ,83 ,82 ,81 ,82 ,92 ,82 ,93 ,82 ,91 ,82 ,84 ,83 ,82 ,83 ,93 ,83 ,94 ,83 ,92 ,83 ,85 ,84 ,83 ,84 ,94 ,84 ,95 ,84 ,93 ,84 ,86 ,85 ,84 ,85 ,95 ,85 ,96 ,85 ,94 ,85 ,87 ,86 ,85 ,86 ,96 ,86 ,97 ,86 ,95 ,86 ,88 ,87 ,86 ,87 ,97 ,87 ,98 ,87 ,96 ,87 ,89 ,88 ,87 ,88 ,98 ,88 ,99 ,88 ,97 ,88 ,90 ,89 ,88 ,89 ,99 ,89 ,100 ,89 ,98 ,89 ,89 ,90 ,100 ,90 ,99 ,90];
L = [10 ,10 ,6 ,6 ,2 ,2 ,4 ,4 ,4 ,4 ,10 ,10 ,1 ,1 ,1 ,1 ,5 ,5 ,7 ,7 ,8 ,8 ,3 ,3 ,6 ,6 ,10 ,10 ,7 ,7 ,4 ,4 ,4 ,4 ,4 ,4 ,1 ,1 ,7 ,7 ,5 ,5 ,7 ,7 ,6 ,6 ,9 ,9 ,9 ,9 ,4 ,4 ,8 ,8 ,3 ,3 ,9 ,9 ,6 ,6 ,10 ,10 ,6 ,6 ,8 ,8 ,3 ,3 ,9 ,9 ,6 ,6 ,1 ,1 ,7 ,7 ,7 ,7 ,5 ,5 ,5 ,5 ,4 ,4 ,3 ,3 ,6 ,6 ,4 ,4 ,2 ,2 ,10 ,10 ,3 ,3 ,6 ,6 ,7 ,7 ,7 ,7 ,6 ,6 ,5 ,5 ,1 ,1 ,7 ,7 ,9 ,9 ,1 ,1 ,6 ,6 ,4 ,4 ,3 ,3 ,3 ,3 ,8 ,8 ,2 ,2 ,5 ,5 ,9 ,9 ,1 ,1 ,8 ,8 ,9 ,9 ,6 ,6 ,2 ,2 ,3 ,3 ,1 ,1 ,6 ,6 ,10 ,10 ,4 ,4 ,2 ,2 ,10 ,10 ,6 ,6 ,7 ,7 ,10 ,10 ,7 ,7 ,8 ,8 ,1 ,1 ,6 ,6 ,8 ,8 ,3 ,3 ,7 ,7 ,2 ,2 ,2 ,2 ,10 ,10 ,10 ,10 ,5 ,5 ,6 ,6 ,5 ,5 ,5 ,5 ,6 ,6 ,1 ,1 ,2 ,2 ,9 ,9 ,9 ,9 ,7 ,7 ,9 ,9 ,10 ,10 ,9 ,9 ,1 ,1 ,4 ,4 ,9 ,9 ,1 ,1 ,8 ,8 ,2 ,2 ,2 ,2 ,4 ,4 ,4 ,4 ,7 ,7 ,3 ,3 ,8 ,8 ,1 ,1 ,2 ,2 ,9 ,9 ,6 ,6 ,5 ,5 ,9 ,9 ,3 ,3 ,7 ,7 ,8 ,8 ,10 ,10 ,6 ,6 ,3 ,3 ,6 ,6 ,8 ,8 ,4 ,4 ,4 ,4 ,7 ,7 ,3 ,3 ,4 ,4 ,7 ,7 ,1 ,1 ,3 ,3 ,2 ,2 ,8 ,8 ,3 ,3 ,3 ,3 ,10 ,10 ,2 ,2 ,4 ,4 ,7 ,7 ,2 ,2 ,4 ,4 ,8 ,8 ,6 ,6 ,2 ,2 ,2 ,2 ,9 ,9 ,9 ,9 ,2 ,2 ,6 ,6 ,2 ,2 ,10 ,10 ,6 ,6 ,4 ,4 ,3 ,3 ,7 ,7 ,1 ,1 ,9 ,9 ,6 ,6 ,7 ,7 ,9 ,9 ,9 ,9 ,6 ,6 ,4 ,4 ,5 ,5 ,3 ,3 ,9 ,9 ,7 ,7 ,10 ,10 ,1 ,1 ,1 ,1 ,3 ,3 ,3 ,3 ,2 ,2 ,9 ,9 ,4 ,4 ,7 ,7 ,7 ,7 ,8 ,8 ,3 ,3 ,5 ,5 ,10 ,10 ,4 ,4 ,7 ,7 ,9 ,9 ,9 ,9 ,4 ,4 ,7 ,7 ,2 ,2 ,1 ,1 ,2 ,2 ,4 ,4 ,6 ,6 ,2 ,2 ,5 ,5 ,10 ,10 ,10 ,10 ,6 ,6 ,8 ,8 ,5 ,5 ,7 ,7 ,4 ,4 ,5 ,5 ,3 ,3 ,5 ,5 ,8 ,8 ,7 ,7 ,5 ,5 ,7 ,7 ,4 ,4 ,3 ,3 ,5 ,5 ,9 ,9 ,3 ,3 ,7 ,7 ,7 ,7 ,2 ,2 ,8 ,8 ,9 ,9 ,4 ,4 ,2 ,2 ,4 ,4 ,7 ,7 ,3 ,3 ,2 ,2 ,8 ,8 ,2 ,2 ,5 ,5 ,5 ,5 ,5 ,5 ,8 ,8 ,4 ,4 ,9 ,9 ,7 ,7 ,7 ,7 ,3 ,3 ,3 ,3 ,9 ,9 ,6 ,6 ,5 ,5 ,8 ,8 ,8 ,8 ,9 ,9 ,2 ,2 ,5 ,5 ,9 ,9 ,9 ,9 ,10 ,10 ,10 ,10 ,4 ,4 ,3 ,3 ,5 ,5 ,6 ,6 ,3 ,3 ,7 ,7 ,10 ,10 ,8 ,8 ,6 ,6 ,10 ,10 ,2 ,2 ,6 ,6 ,7 ,7 ,6 ,6 ,5 ,5 ,2 ,2 ,7 ,7 ,10 ,10 ,10 ,10 ,7 ,7 ,1 ,1 ,10 ,10 ,10 ,10 ,9 ,9 ,5 ,5 ,1 ,1 ,3 ,3 ,5 ,5 ,8 ,8 ,1 ,1 ,10 ,10 ,1 ,1 ,10 ,10 ,5 ,5 ,8 ,8 ,5 ,5 ,4 ,4 ,6 ,6 ,10 ,10 ,2 ,2 ,1 ,1 ,4 ,4 ,3 ,3 ,4 ,4 ,6 ,6 ,4 ,4 ,8 ,8 ,1 ,1 ,2 ,2 ,4 ,4 ,4 ,4 ,10 ,10 ,7 ,7 ,8 ,8 ,2 ,2 ,8 ,8 ,6 ,6 ,5 ,5 ,1 ,1 ,4 ,4 ,10 ,10 ,3 ,3 ,3 ,3 ,6 ,6 ,9 ,9 ,6 ,6 ,1 ,1 ,5 ,5 ,3 ,3 ,2 ,2 ,4 ,4 ,7 ,7 ,2 ,2 ,10 ,10 ,8 ,8 ,1 ,1 ,7 ,7 ,4 ,4 ,7 ,7 ,4 ,4 ,2 ,2 ,10 ,10 ,10 ,10 ,1 ,1 ,5 ,5 ,7 ,7 ,3 ,3 ,10 ,10 ,4 ,4 ,9 ,9 ,4 ,4 ,10 ,10 ,9 ,9 ,9 ,9 ,7 ,7 ,10 ,10 ,4 ,4 ,8 ,8 ,6 ,6 ,6 ,6 ,4 ,4 ,10 ,10 ,7 ,7 ,9 ,9 ,6 ,6 ,7 ,7 ,9 ,9 ,10 ,10 ,10 ,10 ,6 ,6 ,8 ,8 ,6 ,6 ,10 ,10 ,8 ,8 ,6 ,6 ,1 ,1 ,9 ,9 ,2 ,2 ,1 ,1 ,7 ,7 ,1 ,1 ,10 ,10 ,10 ,10 ,1 ,1 ,3 ,3 ,9 ,9 ,6 ,6 ,7 ,7 ,6 ,6 ,3 ,3 ,3 ,3 ,9 ,9 ,4 ,4 ,5 ,5 ,8 ,8 ,9 ,9 ,4 ,4 ,7 ,7 ,7 ,7 ,5 ,5 ,9 ,9];
D = [4 ,4 ,9 ,9 ,2 ,2 ,6 ,6 ,9 ,9 ,6 ,6 ,7 ,7 ,5 ,5 ,8 ,8 ,3 ,3 ,1 ,1 ,3 ,3 ,3 ,3 ,7 ,7 ,2 ,2 ,10 ,10 ,4 ,4 ,3 ,3 ,2 ,2 ,5 ,5 ,6 ,6 ,10 ,10 ,4 ,4 ,10 ,10 ,10 ,10 ,10 ,10 ,6 ,6 ,8 ,8 ,8 ,8 ,8 ,8 ,9 ,9 ,9 ,9 ,4 ,4 ,9 ,9 ,1 ,1 ,9 ,9 ,3 ,3 ,8 ,8 ,1 ,1 ,9 ,9 ,6 ,6 ,4 ,4 ,2 ,2 ,10 ,10 ,8 ,8 ,1 ,1 ,1 ,1 ,6 ,6 ,6 ,6 ,6 ,6 ,8 ,8 ,9 ,9 ,5 ,5 ,8 ,8 ,9 ,9 ,3 ,3 ,1 ,1 ,4 ,4 ,1 ,1 ,2 ,2 ,7 ,7 ,6 ,6 ,6 ,6 ,4 ,4 ,3 ,3 ,10 ,10 ,8 ,8 ,3 ,3 ,9 ,9 ,5 ,5 ,7 ,7 ,2 ,2 ,4 ,4 ,10 ,10 ,7 ,7 ,8 ,8 ,5 ,5 ,7 ,7 ,5 ,5 ,5 ,5 ,7 ,7 ,7 ,7 ,8 ,8 ,10 ,10 ,1 ,1 ,6 ,6 ,2 ,2 ,8 ,8 ,7 ,7 ,10 ,10 ,4 ,4 ,1 ,1 ,4 ,4 ,2 ,2 ,3 ,3 ,7 ,7 ,6 ,6 ,2 ,2 ,3 ,3 ,4 ,4 ,3 ,3 ,4 ,4 ,7 ,7 ,8 ,8 ,5 ,5 ,7 ,7 ,9 ,9 ,8 ,8 ,3 ,3 ,8 ,8 ,10 ,10 ,7 ,7 ,6 ,6 ,7 ,7 ,8 ,8 ,9 ,9 ,3 ,3 ,3 ,3 ,6 ,6 ,3 ,3 ,6 ,6 ,1 ,1 ,2 ,2 ,6 ,6 ,8 ,8 ,3 ,3 ,2 ,2 ,9 ,9 ,5 ,5 ,3 ,3 ,10 ,10 ,1 ,1 ,10 ,10 ,3 ,3 ,10 ,10 ,4 ,4 ,3 ,3 ,10 ,10 ,3 ,3 ,4 ,4 ,3 ,3 ,4 ,4 ,4 ,4 ,1 ,1 ,7 ,7 ,8 ,8 ,7 ,7 ,3 ,3 ,3 ,3 ,10 ,10 ,8 ,8 ,10 ,10 ,1 ,1 ,6 ,6 ,1 ,1 ,9 ,9 ,9 ,9 ,8 ,8 ,8 ,8 ,10 ,10 ,10 ,10 ,5 ,5 ,6 ,6 ,10 ,10 ,4 ,4 ,3 ,3 ,2 ,2 ,1 ,1 ,8 ,8 ,8 ,8 ,1 ,1 ,8 ,8 ,5 ,5 ,10 ,10 ,1 ,1 ,5 ,5 ,9 ,9 ,4 ,4 ,6 ,6 ,10 ,10 ,4 ,4 ,3 ,3 ,1 ,1 ,1 ,1 ,5 ,5 ,8 ,8 ,9 ,9 ,3 ,3 ,9 ,9 ,2 ,2 ,9 ,9 ,1 ,1 ,10 ,10 ,7 ,7 ,3 ,3 ,3 ,3 ,4 ,4 ,10 ,10 ,4 ,4 ,6 ,6 ,1 ,1 ,1 ,1 ,1 ,1 ,10 ,10 ,6 ,6 ,6 ,6 ,7 ,7 ,9 ,9 ,3 ,3 ,10 ,10 ,10 ,10 ,9 ,9 ,2 ,2 ,4 ,4 ,6 ,6 ,2 ,2 ,2 ,2 ,2 ,2 ,5 ,5 ,10 ,10 ,2 ,2 ,6 ,6 ,7 ,7 ,7 ,7 ,1 ,1 ,4 ,4 ,5 ,5 ,1 ,1 ,8 ,8 ,1 ,1 ,4 ,4 ,1 ,1 ,3 ,3 ,6 ,6 ,10 ,10 ,7 ,7 ,6 ,6 ,6 ,6 ,1 ,1 ,2 ,2 ,3 ,3 ,2 ,2 ,1 ,1 ,7 ,7 ,7 ,7 ,2 ,2 ,4 ,4 ,8 ,8 ,2 ,2 ,3 ,3 ,8 ,8 ,10 ,10 ,9 ,9 ,4 ,4 ,1 ,1 ,3 ,3 ,5 ,5 ,8 ,8 ,6 ,6 ,7 ,7 ,9 ,9 ,5 ,5 ,9 ,9 ,1 ,1 ,3 ,3 ,3 ,3 ,1 ,1 ,6 ,6 ,5 ,5 ,7 ,7 ,9 ,9 ,2 ,2 ,6 ,6 ,4 ,4 ,2 ,2 ,9 ,9 ,5 ,5 ,3 ,3 ,4 ,4 ,10 ,10 ,10 ,10 ,9 ,9 ,1 ,1 ,9 ,9 ,7 ,7 ,8 ,8 ,4 ,4 ,5 ,5 ,1 ,1 ,7 ,7 ,4 ,4 ,1 ,1 ,1 ,1 ,7 ,7 ,4 ,4 ,3 ,3 ,10 ,10 ,5 ,5 ,9 ,9 ,1 ,1 ,5 ,5 ,5 ,5 ,1 ,1 ,8 ,8 ,8 ,8 ,9 ,9 ,3 ,3 ,3 ,3 ,3 ,3 ,1 ,1 ,7 ,7 ,6 ,6 ,3 ,3 ,10 ,10 ,3 ,3 ,6 ,6 ,8 ,8 ,10 ,10 ,4 ,4 ,1 ,1 ,6 ,6 ,8 ,8 ,10 ,10 ,1 ,1 ,6 ,6 ,3 ,3 ,7 ,7 ,5 ,5 ,5 ,5 ,9 ,9 ,6 ,6 ,5 ,5 ,4 ,4 ,4 ,4 ,5 ,5 ,7 ,7 ,8 ,8 ,6 ,6 ,6 ,6 ,8 ,8 ,7 ,7 ,6 ,6 ,2 ,2 ,8 ,8 ,7 ,7 ,6 ,6 ,5 ,5 ,1 ,1 ,9 ,9 ,9 ,9 ,6 ,6 ,10 ,10 ,7 ,7 ,6 ,6 ,8 ,8 ,9 ,9 ,8 ,8 ,9 ,9 ,8 ,8 ,4 ,4 ,5 ,5 ,10 ,10 ,3 ,3 ,6 ,6 ,10 ,10 ,7 ,7 ,8 ,8 ,6 ,6 ,4 ,4 ,5 ,5 ,3 ,3 ,10 ,10 ,5 ,5 ,4 ,4 ,10 ,10 ,4 ,4 ,9 ,9 ,8 ,8 ,3 ,3 ,6 ,6 ,7 ,7 ,2 ,2 ,2 ,2 ,1 ,1 ,5 ,5 ,1 ,1 ,7 ,7 ,9 ,9 ,10 ,10 ,2 ,2 ,8 ,8 ,6 ,6 ,10 ,10 ,2 ,2 ,1 ,1 ,3 ,3];
R = [5 ,5 ,2 ,2 ,3 ,3 ,1 ,1 ,2 ,2 ,3 ,3 ,2 ,2 ,5 ,5 ,5 ,5 ,5 ,5 ,3 ,3 ,4 ,4 ,2 ,2 ,4 ,4 ,2 ,2 ,5 ,5 ,1 ,1 ,1 ,1 ,2 ,2 ,3 ,3 ,1 ,1 ,3 ,3 ,1 ,1 ,4 ,4 ,2 ,2 ,2 ,2 ,4 ,4 ,5 ,5 ,4 ,4 ,1 ,1 ,2 ,2 ,5 ,5 ,1 ,1 ,4 ,4 ,4 ,4 ,5 ,5 ,4 ,4 ,4 ,4 ,2 ,2 ,1 ,1 ,3 ,3 ,2 ,2 ,5 ,5 ,5 ,5 ,1 ,1 ,1 ,1 ,4 ,4 ,2 ,2 ,2 ,2 ,2 ,2 ,5 ,5 ,5 ,5 ,2 ,2 ,1 ,1 ,4 ,4 ,4 ,4 ,1 ,1 ,4 ,4 ,5 ,5 ,1 ,1 ,3 ,3 ,5 ,5 ,4 ,4 ,1 ,1 ,2 ,2 ,3 ,3 ,5 ,5 ,1 ,1 ,2 ,2 ,3 ,3 ,2 ,2 ,3 ,3 ,2 ,2 ,5 ,5 ,3 ,3 ,2 ,2 ,3 ,3 ,2 ,2 ,3 ,3 ,3 ,3 ,2 ,2 ,4 ,4 ,5 ,5 ,3 ,3 ,3 ,3 ,3 ,3 ,1 ,1 ,3 ,3 ,5 ,5 ,2 ,2 ,1 ,1 ,1 ,1 ,4 ,4 ,2 ,2 ,3 ,3 ,1 ,1 ,5 ,5 ,2 ,2 ,5 ,5 ,1 ,1 ,4 ,4 ,5 ,5 ,4 ,4 ,5 ,5 ,3 ,3 ,2 ,2 ,4 ,4 ,4 ,4 ,5 ,5 ,3 ,3 ,1 ,1 ,2 ,2 ,4 ,4 ,5 ,5 ,2 ,2 ,3 ,3 ,2 ,2 ,4 ,4 ,2 ,2 ,4 ,4 ,5 ,5 ,1 ,1 ,4 ,4 ,5 ,5 ,2 ,2 ,1 ,1 ,3 ,3 ,2 ,2 ,4 ,4 ,4 ,4 ,1 ,1 ,1 ,1 ,3 ,3 ,4 ,4 ,1 ,1 ,4 ,4 ,1 ,1 ,3 ,3 ,2 ,2 ,2 ,2 ,5 ,5 ,5 ,5 ,2 ,2 ,3 ,3 ,2 ,2 ,4 ,4 ,2 ,2 ,3 ,3 ,4 ,4 ,5 ,5 ,3 ,3 ,3 ,3 ,1 ,1 ,1 ,1 ,2 ,2 ,1 ,1 ,2 ,2 ,4 ,4 ,3 ,3 ,3 ,3 ,3 ,3 ,4 ,4 ,5 ,5 ,2 ,2 ,2 ,2 ,1 ,1 ,2 ,2 ,1 ,1 ,2 ,2 ,5 ,5 ,5 ,5 ,4 ,4 ,2 ,2 ,3 ,3 ,2 ,2 ,5 ,5 ,3 ,3 ,1 ,1 ,2 ,2 ,3 ,3 ,4 ,4 ,5 ,5 ,4 ,4 ,3 ,3 ,2 ,2 ,3 ,3 ,5 ,5 ,3 ,3 ,1 ,1 ,1 ,1 ,3 ,3 ,1 ,1 ,3 ,3 ,3 ,3 ,5 ,5 ,1 ,1 ,3 ,3 ,2 ,2 ,1 ,1 ,2 ,2 ,4 ,4 ,5 ,5 ,2 ,2 ,4 ,4 ,4 ,4 ,1 ,1 ,4 ,4 ,4 ,4 ,5 ,5 ,5 ,5 ,5 ,5 ,2 ,2 ,5 ,5 ,1 ,1 ,2 ,2 ,4 ,4 ,4 ,4 ,4 ,4 ,3 ,3 ,1 ,1 ,1 ,1 ,1 ,1 ,3 ,3 ,3 ,3 ,1 ,1 ,5 ,5 ,3 ,3 ,5 ,5 ,1 ,1 ,3 ,3 ,4 ,4 ,4 ,4 ,4 ,4 ,5 ,5 ,2 ,2 ,2 ,2 ,3 ,3 ,1 ,1 ,1 ,1 ,2 ,2 ,1 ,1 ,3 ,3 ,5 ,5 ,4 ,4 ,5 ,5 ,2 ,2 ,3 ,3 ,4 ,4 ,1 ,1 ,3 ,3 ,5 ,5 ,4 ,4 ,5 ,5 ,4 ,4 ,4 ,4 ,1 ,1 ,2 ,2 ,4 ,4 ,2 ,2 ,2 ,2 ,5 ,5 ,5 ,5 ,5 ,5 ,1 ,1 ,3 ,3 ,3 ,3 ,2 ,2 ,1 ,1 ,4 ,4 ,1 ,1 ,3 ,3 ,2 ,2 ,3 ,3 ,1 ,1 ,4 ,4 ,4 ,4 ,1 ,1 ,3 ,3 ,1 ,1 ,2 ,2 ,4 ,4 ,1 ,1 ,2 ,2 ,4 ,4 ,2 ,2 ,1 ,1 ,3 ,3 ,2 ,2 ,5 ,5 ,2 ,2 ,3 ,3 ,3 ,3 ,5 ,5 ,4 ,4 ,5 ,5 ,3 ,3 ,5 ,5 ,5 ,5 ,1 ,1 ,3 ,3 ,1 ,1 ,4 ,4 ,5 ,5 ,3 ,3 ,1 ,1 ,5 ,5 ,5 ,5 ,5 ,5 ,5 ,5 ,1 ,1 ,1 ,1 ,1 ,1 ,3 ,3 ,5 ,5 ,3 ,3 ,2 ,2 ,4 ,4 ,4 ,4 ,1 ,1 ,2 ,2 ,2 ,2 ,4 ,4 ,1 ,1 ,4 ,4 ,4 ,4 ,1 ,1 ,1 ,1 ,4 ,4 ,1 ,1 ,4 ,4 ,5 ,5 ,4 ,4 ,4 ,4 ,1 ,1 ,4 ,4 ,5 ,5 ,5 ,5 ,4 ,4 ,4 ,4 ,1 ,1 ,3 ,3 ,1 ,1 ,2 ,2 ,5 ,5 ,1 ,1 ,5 ,5 ,4 ,4 ,5 ,5 ,3 ,3 ,3 ,3 ,1 ,1 ,2 ,2 ,2 ,2 ,3 ,3 ,2 ,2 ,1 ,1 ,5 ,5 ,1 ,1 ,3 ,3 ,3 ,3 ,2 ,2 ,1 ,1 ,5 ,5 ,2 ,2 ,3 ,3 ,3 ,3 ,1 ,1 ,5 ,5 ,5 ,5 ,2 ,2 ,5 ,5 ,2 ,2 ,5 ,5 ,3 ,3 ,1 ,1 ,3 ,3 ,3 ,3 ,1 ,1 ,5 ,5 ,4 ,4 ,4 ,4 ,5 ,5 ,5 ,5 ,5 ,5 ,5 ,5 ,4 ,4 ,4 ,4 ,2 ,2 ,3 ,3 ,3 ,3 ,3 ,3 ,5 ,5 ,1 ,1 ,1 ,1 ,4 ,4 ,3 ,3];
